CUSTOMERS : 10
VEHICLES : 6
0 478 133 373 347 333 269 21 296 58 193 
165 0 202 483 410 379 309 153 370 371 175 
237 190 0 254 98 24 267 418 482 176 140 
462 295 495 0 326 410 393 420 152 456 216 
335 227 293 344 0 313 35 53 332 46 44 
334 341 386 364 161 0 420 103 149 265 266 
144 410 121 128 154 377 0 422 122 293 284 
249 7 254 372 1 21 13 0 356 4 297 
138 45 304 246 179 385 61 495 0 393 33 
122 362 92 115 106 260 326 478 109 0 177 
125 385 366 331 358 304 111 88 89 122 0 
